5,1,2,1,8,2,4,2,1,2,6,4,3,5,9,4,7,5,10,5;6,1,4,1,1,1,7,3,8,3,9,2,10,3,10,4,5,4,2,5;8,1,6,2,5,2,5,3,7,4,3,4,2,4,4,4,9,5,1,5;7,1,3,1,6,3,9,1,2,2,3,3,10,2,8,4,6,5,1,4,4,5;10,1,7,2,3,2,4,3,2,3,9,3,1,3,8,5,5,5;
